(declare-fun bvlambda_11_ () (_ BitVec 1))
(declare-fun a196 () (Array (_ BitVec 1) (_ BitVec 12)))
(assert
(let (($e1 (_ bv0 1)))
(let (($e41 (_ bv0 15)))
(let (($e42 (_ bv3422 12)))
(let (($e371                           $e41       ))
(let (($e372               $e371                ))
(let (($e373 ((_ extract 12 1) $e372)))
(let (($e374 (store a196 (bvnot $e1)        $e42 )))
(let (($e375 (store $e374 bvlambda_11_        $e373 )))
(let (($e376 (select $e375 (bvnot $e1))))
             (   extract        $e376)
                                                                                                                                                                                                                                                                                                                                                                                                                                                                                                                                                                                                                                                                                                                                                                                                                                                                                                                                                                                                                                                                                                                                                                                                                                                                                                                                                                                                                                                                                                                                                                                                                                                                                                                                                                                                                                                                                                                                                                                                                                                                                                                                                                                                                                                                                                                                                                                                                                                                                                                                                                                                                                                                                                                                                                                                                                                                                                                                                                                                                                                                                                                                                                                                                                                                                                                                                                                                                                                         ))))))                                                                                                                                                                                                                                                           ))                                       ))
